
Gurobi 6.0.4 (win64) logging started 06/18/15 16:00:50

Read LP format model from file C:\MT\repository\VRPTWMS\instances\mip\freight\N12-C_DV10-C_SV50_F26_2_No_1.lp
Reading time = 0.02 seconds
(null): 865 rows, 392 columns, 3639 nonzeros
Optimize a model with 865 rows, 392 columns and 3639 nonzeros
Model has 1728 quadratic constraints
Coefficient statistics:
  Matrix range    [1e+00, 1e+06]
  Objective range [3e+04, 1e+07]
  Bounds range    [1e+00, 1e+06]
  RHS range       [1e+00, 1e+06]
Presolve removed 175 rows and 73 columns
Presolve time: 0.09s
Presolved: 2818 rows, 1383 columns, 16418 nonzeros
Variable types: 1064 continuous, 319 integer (271 binary)
Found heuristic solution: objective 1.269324e+08

Root relaxation: objective 1.883809e+07, 189 iterations, 0.01 seconds

    Nodes    |    Current Node    |     Objective Bounds      |     Work
 Expl Unexpl |  Obj  Depth IntInf | Incumbent    BestBd   Gap | It/Node Time

     0     0 1.8838e+07    0   59 1.2693e+08 1.8838e+07  85.2%     -    0s
     0     0 2.3649e+07    0   60 1.2693e+08 2.3649e+07  81.4%     -    0s
H    0     0                    8.528800e+07 2.3649e+07  72.3%     -    0s
H    0     0                    6.499280e+07 2.3649e+07  63.6%     -    0s
     0     0 2.6586e+07    0   79 6.4993e+07 2.6586e+07  59.1%     -    0s
     0     0 2.9062e+07    0   78 6.4993e+07 2.9062e+07  55.3%     -    0s
     0     0 3.0004e+07    0   74 6.4993e+07 3.0004e+07  53.8%     -    0s
H    0     0                    5.527980e+07 3.0004e+07  45.7%     -    0s
     0     0 3.0296e+07    0   91 5.5280e+07 3.0296e+07  45.2%     -    0s
     0     0 3.0436e+07    0   84 5.5280e+07 3.0436e+07  44.9%     -    0s
     0     0 3.0493e+07    0   88 5.5280e+07 3.0493e+07  44.8%     -    0s
     0     0 3.0504e+07    0   90 5.5280e+07 3.0504e+07  44.8%     -    0s
     0     0 3.0504e+07    0   90 5.5280e+07 3.0504e+07  44.8%     -    0s
     0     0 3.0504e+07    0   85 5.5280e+07 3.0504e+07  44.8%     -    0s
H    0     0                    5.469460e+07 3.0504e+07  44.2%     -    0s
     0     0 3.0504e+07    0   87 5.4695e+07 3.0504e+07  44.2%     -    0s
     0     0 3.0504e+07    0   87 5.4695e+07 3.0504e+07  44.2%     -    0s
     0     0 3.0504e+07    0   87 5.4695e+07 3.0504e+07  44.2%     -    0s
     0     2 3.0504e+07    0   86 5.4695e+07 3.0504e+07  44.2%     -    0s
*   33    20              20    5.468950e+07 3.0846e+07  43.6%  18.7    0s
H   65    35                    5.421150e+07 3.2178e+07  40.6%  18.1    0s
H  287   117                    5.406690e+07 3.3735e+07  37.6%  18.9    1s
* 1936   402              16    5.404090e+07 4.3770e+07  19.0%  14.2    2s
  5358   285 infeasible   37      5.4041e+07 5.0916e+07  5.78%  13.1    5s

Cutting planes:
  Gomory: 1
  Cover: 208
  Implied bound: 149
  Clique: 33
  MIR: 19
  GUB cover: 26

Explored 7412 nodes (94596 simplex iterations) in 6.60 seconds
Thread count was 2 (of 4 available processors)

Optimal solution found (tolerance 1.00e-04)
Best objective 5.404090000000e+07, best bound 5.404090000000e+07, gap 0.0%
k_c1	70000.0
k_c10	59999.999999999985
k_c11	40000.0
k_c12	99999.99999999999
k_c2	40000.0
k_c3	30000.0
k_c4	90000.0
k_c5	99999.99999999999
k_c6	30000.000000000073
k_c7	100000.0
k_c8	100000.0
k_c9	90000.0
k_dN	-0.0
o_1	0.0
o_10	-0.0
o_11	-0.0
o_12	-0.0
o_2	-0.0
o_3	-0.0
o_4	-0.0
o_5	-0.0
o_6	-0.0
o_7	-0.0
o_8	-0.0
o_9	-0.0
p_1	0.0
p_10	0.0
p_11	0.0
p_12	0.0
p_2	0.0
p_3	0.0
p_4	-0.0
p_5	-0.0
p_6	0.0
p_7	-0.0
p_8	-0.0
p_9	-0.0
phi_c1	227427.0
phi_c10	43599.000000000044
phi_c11	2114.0
phi_c12	50991.000000000044
phi_c2	32226.00000000006
phi_c3	238304.00000000058
phi_c4	30292.0
phi_c5	238579.0
phi_c6	17508.000000000062
phi_c7	250352.99999999997
phi_c8	234818.99999999994
phi_c9	243529.00000000058
phi_d0	260000.0
phi_dN	-0.0
tauD_c1	400000.0
tauD_c10	747625.0
tauD_c11	800000.0000000001
tauD_c12	650000.0
tauD_c2	810125.0
tauD_c3	450000.0
tauD_c4	450000.0
tauD_c5	450000.0
tauD_c6	600000.0
tauD_c7	200000.0
tauD_c8	250000.0
tauD_c9	390475.0
tauD_d0	-0.0
tauD_dN	1000000.0
tauS_c1	67175.00000000012
tauS_c10	822500.0
tauS_c11	37450.00000000006
tauS_c12	831925.0
tauS_c2	799575.0
tauS_c3	28900.00000000006
tauS_c4	806800.0
tauS_c5	76775.00000000012
tauS_c6	854575.0
tauS_c7	40500.00000000006
tauS_c8	92000.00000000012
tauS_c9	44875.00000000012
tauS_d0	-0.0
tauS_dN	1000000.0
x_c10_c2	1.0
x_c11_dN	1.0
x_c12_c10	1.0
x_c1_c6	1.0
x_c2_dN	1.0
x_c3_dN	1.0
x_c4_dN	1.0
x_c5_c11	1.0
x_c6_dN	1.0
x_c7_c9	1.0
x_c8_c1	1.0
x_c9_c3	1.0
x_d0_c12	1.0
x_d0_c4	1.0
x_d0_c5	1.0
x_d0_c7	1.0
x_d0_c8	1.0
